c Modular CNF with 5 modules
c Generated CNF instance
p cnf 30 480
6 1 5 0
6 1 -5 0
6 -1 5 0
-6 1 5 0
6 3 2 0
6 3 -2 0
6 -3 2 0
-6 3 2 0
2 6 1 0
2 6 -1 0
2 -6 1 0
-2 6 1 0
6 5 1 0
6 5 -1 0
6 -5 1 0
-6 5 1 0
5 4 1 0
5 4 -1 0
5 -4 1 0
-5 4 1 0
1 6 2 0
1 6 -2 0
1 -6 2 0
-1 6 2 0
2 5 1 0
2 5 -1 0
2 -5 1 0
-2 5 1 0
5 2 4 0
5 2 -4 0
5 -2 4 0
-5 2 4 0
2 4 3 0
2 4 -3 0
2 -4 3 0
-2 4 3 0
1 2 4 0
1 2 -4 0
1 -2 4 0
-1 2 4 0
3 6 2 0
3 6 -2 0
3 -6 2 0
-3 6 2 0
2 3 1 0
2 3 -1 0
2 -3 1 0
-2 3 1 0
1 4 6 0
1 4 -6 0
1 -4 6 0
-1 4 6 0
3 6 5 0
3 6 -5 0
3 -6 5 0
-3 6 5 0
1 4 6 0
1 4 -6 0
1 -4 6 0
-1 4 6 0
4 1 3 0
4 1 -3 0
4 -1 3 0
-4 1 3 0
6 5 3 0
6 5 -3 0
6 -5 3 0
-6 5 3 0
5 2 1 0
5 2 -1 0
5 -2 1 0
-5 2 1 0
1 2 3 0
1 2 -3 0
1 -2 3 0
-1 2 3 0
1 2 6 0
1 2 -6 0
1 -2 6 0
-1 2 6 0
4 3 6 0
4 3 -6 0
4 -3 6 0
-4 3 6 0
6 3 2 0
6 3 -2 0
6 -3 2 0
-6 3 2 0
3 6 2 0
3 6 -2 0
3 -6 2 0
-3 6 2 0
6 3 1 0
6 3 -1 0
6 -3 1 0
-6 3 1 0
11 8 12 0
11 8 -12 0
11 -8 12 0
-11 8 12 0
8 10 11 0
8 10 -11 0
8 -10 11 0
-8 10 11 0
9 11 8 0
9 11 -8 0
9 -11 8 0
-9 11 8 0
12 9 7 0
12 9 -7 0
12 -9 7 0
-12 9 7 0
8 7 9 0
8 7 -9 0
8 -7 9 0
-8 7 9 0
10 9 7 0
10 9 -7 0
10 -9 7 0
-10 9 7 0
8 11 9 0
8 11 -9 0
8 -11 9 0
-8 11 9 0
8 10 11 0
8 10 -11 0
8 -10 11 0
-8 10 11 0
12 10 8 0
12 10 -8 0
12 -10 8 0
-12 10 8 0
9 8 11 0
9 8 -11 0
9 -8 11 0
-9 8 11 0
12 11 9 0
12 11 -9 0
12 -11 9 0
-12 11 9 0
12 11 10 0
12 11 -10 0
12 -11 10 0
-12 11 10 0
11 10 9 0
11 10 -9 0
11 -10 9 0
-11 10 9 0
8 12 10 0
8 12 -10 0
8 -12 10 0
-8 12 10 0
7 12 11 0
7 12 -11 0
7 -12 11 0
-7 12 11 0
8 12 10 0
8 12 -10 0
8 -12 10 0
-8 12 10 0
11 7 10 0
11 7 -10 0
11 -7 10 0
-11 7 10 0
10 11 12 0
10 11 -12 0
10 -11 12 0
-10 11 12 0
11 9 7 0
11 9 -7 0
11 -9 7 0
-11 9 7 0
12 7 9 0
12 7 -9 0
12 -7 9 0
-12 7 9 0
12 9 7 0
12 9 -7 0
12 -9 7 0
-12 9 7 0
9 10 8 0
9 10 -8 0
9 -10 8 0
-9 10 8 0
10 7 9 0
10 7 -9 0
10 -7 9 0
-10 7 9 0
11 8 7 0
11 8 -7 0
11 -8 7 0
-11 8 7 0
18 15 14 0
18 15 -14 0
18 -15 14 0
-18 15 14 0
14 15 18 0
14 15 -18 0
14 -15 18 0
-14 15 18 0
17 18 13 0
17 18 -13 0
17 -18 13 0
-17 18 13 0
17 15 16 0
17 15 -16 0
17 -15 16 0
-17 15 16 0
13 18 15 0
13 18 -15 0
13 -18 15 0
-13 18 15 0
15 14 13 0
15 14 -13 0
15 -14 13 0
-15 14 13 0
14 17 13 0
14 17 -13 0
14 -17 13 0
-14 17 13 0
13 16 18 0
13 16 -18 0
13 -16 18 0
-13 16 18 0
17 14 18 0
17 14 -18 0
17 -14 18 0
-17 14 18 0
18 16 14 0
18 16 -14 0
18 -16 14 0
-18 16 14 0
15 17 16 0
15 17 -16 0
15 -17 16 0
-15 17 16 0
14 17 18 0
14 17 -18 0
14 -17 18 0
-14 17 18 0
18 15 16 0
18 15 -16 0
18 -15 16 0
-18 15 16 0
18 15 16 0
18 15 -16 0
18 -15 16 0
-18 15 16 0
17 16 13 0
17 16 -13 0
17 -16 13 0
-17 16 13 0
14 18 13 0
14 18 -13 0
14 -18 13 0
-14 18 13 0
15 13 14 0
15 13 -14 0
15 -13 14 0
-15 13 14 0
17 14 13 0
17 14 -13 0
17 -14 13 0
-17 14 13 0
13 18 14 0
13 18 -14 0
13 -18 14 0
-13 18 14 0
13 18 15 0
13 18 -15 0
13 -18 15 0
-13 18 15 0
13 17 14 0
13 17 -14 0
13 -17 14 0
-13 17 14 0
15 16 14 0
15 16 -14 0
15 -16 14 0
-15 16 14 0
17 14 16 0
17 14 -16 0
17 -14 16 0
-17 14 16 0
14 16 17 0
14 16 -17 0
14 -16 17 0
-14 16 17 0
20 19 23 0
20 19 -23 0
20 -19 23 0
-20 19 23 0
24 22 21 0
24 22 -21 0
24 -22 21 0
-24 22 21 0
22 24 23 0
22 24 -23 0
22 -24 23 0
-22 24 23 0
24 19 23 0
24 19 -23 0
24 -19 23 0
-24 19 23 0
19 22 21 0
19 22 -21 0
19 -22 21 0
-19 22 21 0
19 20 23 0
19 20 -23 0
19 -20 23 0
-19 20 23 0
20 23 22 0
20 23 -22 0
20 -23 22 0
-20 23 22 0
20 22 24 0
20 22 -24 0
20 -22 24 0
-20 22 24 0
21 22 20 0
21 22 -20 0
21 -22 20 0
-21 22 20 0
19 22 24 0
19 22 -24 0
19 -22 24 0
-19 22 24 0
19 23 24 0
19 23 -24 0
19 -23 24 0
-19 23 24 0
19 20 23 0
19 20 -23 0
19 -20 23 0
-19 20 23 0
22 24 23 0
22 24 -23 0
22 -24 23 0
-22 24 23 0
20 22 19 0
20 22 -19 0
20 -22 19 0
-20 22 19 0
20 22 19 0
20 22 -19 0
20 -22 19 0
-20 22 19 0
22 21 24 0
22 21 -24 0
22 -21 24 0
-22 21 24 0
21 22 23 0
21 22 -23 0
21 -22 23 0
-21 22 23 0
20 24 21 0
20 24 -21 0
20 -24 21 0
-20 24 21 0
20 19 23 0
20 19 -23 0
20 -19 23 0
-20 19 23 0
24 21 19 0
24 21 -19 0
24 -21 19 0
-24 21 19 0
19 23 22 0
19 23 -22 0
19 -23 22 0
-19 23 22 0
23 24 20 0
23 24 -20 0
23 -24 20 0
-23 24 20 0
19 23 24 0
19 23 -24 0
19 -23 24 0
-19 23 24 0
20 19 23 0
20 19 -23 0
20 -19 23 0
-20 19 23 0
30 26 28 0
30 26 -28 0
30 -26 28 0
-30 26 28 0
25 29 26 0
25 29 -26 0
25 -29 26 0
-25 29 26 0
29 30 25 0
29 30 -25 0
29 -30 25 0
-29 30 25 0
29 25 28 0
29 25 -28 0
29 -25 28 0
-29 25 28 0
30 29 27 0
30 29 -27 0
30 -29 27 0
-30 29 27 0
27 26 30 0
27 26 -30 0
27 -26 30 0
-27 26 30 0
26 27 28 0
26 27 -28 0
26 -27 28 0
-26 27 28 0
26 27 28 0
26 27 -28 0
26 -27 28 0
-26 27 28 0
27 25 29 0
27 25 -29 0
27 -25 29 0
-27 25 29 0
28 29 25 0
28 29 -25 0
28 -29 25 0
-28 29 25 0
25 29 26 0
25 29 -26 0
25 -29 26 0
-25 29 26 0
29 27 26 0
29 27 -26 0
29 -27 26 0
-29 27 26 0
27 25 26 0
27 25 -26 0
27 -25 26 0
-27 25 26 0
27 30 26 0
27 30 -26 0
27 -30 26 0
-27 30 26 0
28 29 27 0
28 29 -27 0
28 -29 27 0
-28 29 27 0
29 30 25 0
29 30 -25 0
29 -30 25 0
-29 30 25 0
30 29 27 0
30 29 -27 0
30 -29 27 0
-30 29 27 0
30 25 26 0
30 25 -26 0
30 -25 26 0
-30 25 26 0
27 25 29 0
27 25 -29 0
27 -25 29 0
-27 25 29 0
30 29 26 0
30 29 -26 0
30 -29 26 0
-30 29 26 0
27 30 26 0
27 30 -26 0
27 -30 26 0
-27 30 26 0
30 27 26 0
30 27 -26 0
30 -27 26 0
-30 27 26 0
30 27 28 0
30 27 -28 0
30 -27 28 0
-30 27 28 0
27 25 29 0
27 25 -29 0
27 -25 29 0
-27 25 29 0
